data;
param n:=50;
param w:=1 -57 2 -232 3 130 4 -143 5 -141 6 102 7 193 8 -217 9 126 10 208 11 166 12 98 13 -123 14 47 15 168 16 96 17 137 18 167 19 -14 20 -52 21 -32 22 -63 23 -19 24 169 25 -241 26 -132 27 -110 28 -219 29 118 30 -113 31 -212 32 -137 33 -61 34 217 35 95 36 154 37 -128 38 65 39 -103 40 213 41 -47 42 -231 43 -17 44 212 45 77 46 -258 47 -46 48 213 49 96 50 -119;
